p cnf 200 1110
-101 -68 0
-101 71 0
-101 -72 0
-101 -81 0
-101 64 0
-101 -11 0
-101 -83 0
-101 65 0
-101 -50 0
-101 54 0
101 68 -71 72 81 -64 11 83 -65 50 -54 0
-102 -19 0
-102 -37 0
-102 -84 0
-102 42 0
-102 50 0
-102 71 0
-102 -41 0
-102 97 0
-102 -38 0
-102 90 0
102 19 37 84 -42 -50 -71 41 -97 38 -90 0
-103 -40 0
-103 48 0
-103 14 0
-103 59 0
-103 -61 0
-103 65 0
-103 -78 0
-103 87 0
-103 71 0
-103 45 0
103 40 -48 -14 -59 61 -65 78 -87 -71 -45 0
-104 42 0
-104 -31 0
-104 92 0
-104 15 0
-104 -87 0
-104 -66 0
-104 36 0
-104 46 0
-104 56 0
-104 62 0
104 -42 31 -92 -15 87 66 -36 -46 -56 -62 0
-105 -85 0
-105 -50 0
-105 66 0
-105 55 0
-105 79 0
-105 -71 0
-105 -80 0
-105 58 0
-105 49 0
-105 100 0
105 85 50 -66 -55 -79 71 80 -58 -49 -100 0
-106 -63 0
-106 -67 0
-106 38 0
-106 -89 0
-106 -3 0
-106 15 0
-106 -77 0
-106 13 0
-106 31 0
-106 -53 0
106 63 67 -38 89 3 -15 77 -13 -31 53 0
-107 65 0
-107 -16 0
-107 -96 0
-107 80 0
-107 -97 0
-107 41 0
-107 46 0
-107 7 0
-107 28 0
-107 76 0
107 -65 16 96 -80 97 -41 -46 -7 -28 -76 0
-108 -69 0
-108 -84 0
-108 38 0
-108 -85 0
-108 -53 0
-108 50 0
-108 -4 0
-108 51 0
-108 -25 0
-108 78 0
108 69 84 -38 85 53 -50 4 -51 25 -78 0
-109 -27 0
-109 49 0
-109 -28 0
-109 -84 0
-109 73 0
-109 92 0
-109 83 0
-109 26 0
-109 2 0
-109 -18 0
109 27 -49 28 84 -73 -92 -83 -26 -2 18 0
-110 -47 0
-110 32 0
-110 -8 0
-110 4 0
-110 -1 0
-110 -26 0
-110 -27 0
-110 -97 0
-110 -92 0
-110 25 0
110 47 -32 8 -4 1 26 27 97 92 -25 0
101 102 103 104 105 106 107 108 109 110 0
-111 -24 0
-111 -80 0
-111 -51 0
-111 -62 0
-111 82 0
-111 -55 0
-111 34 0
-111 -73 0
-111 52 0
-111 -79 0
111 24 80 51 62 -82 55 -34 73 -52 79 0
-112 -70 0
-112 -84 0
-112 63 0
-112 62 0
-112 96 0
-112 75 0
-112 60 0
-112 -5 0
-112 -92 0
-112 -25 0
112 70 84 -63 -62 -96 -75 -60 5 92 25 0
-113 16 0
-113 -85 0
-113 41 0
-113 -50 0
-113 -15 0
-113 -1 0
-113 -24 0
-113 28 0
-113 20 0
-113 34 0
113 -16 85 -41 50 15 1 24 -28 -20 -34 0
-114 -36 0
-114 -91 0
-114 -10 0
-114 5 0
-114 -79 0
-114 15 0
-114 -80 0
-114 -76 0
-114 51 0
-114 1 0
114 36 91 10 -5 79 -15 80 76 -51 -1 0
-115 54 0
-115 -65 0
-115 -22 0
-115 -82 0
-115 -81 0
-115 36 0
-115 38 0
-115 -2 0
-115 -3 0
-115 25 0
115 -54 65 22 82 81 -36 -38 2 3 -25 0
-116 89 0
-116 49 0
-116 -20 0
-116 -55 0
-116 98 0
-116 13 0
-116 17 0
-116 14 0
-116 -57 0
-116 74 0
116 -89 -49 20 55 -98 -13 -17 -14 57 -74 0
-117 -72 0
-117 57 0
-117 -26 0
-117 40 0
-117 -86 0
-117 -44 0
-117 78 0
-117 83 0
-117 -79 0
-117 31 0
117 72 -57 26 -40 86 44 -78 -83 79 -31 0
-118 -32 0
-118 -74 0
-118 -49 0
-118 92 0
-118 57 0
-118 -79 0
-118 37 0
-118 -89 0
-118 8 0
-118 45 0
118 32 74 49 -92 -57 79 -37 89 -8 -45 0
-119 -39 0
-119 99 0
-119 -22 0
-119 -50 0
-119 -29 0
-119 -47 0
-119 14 0
-119 36 0
-119 -52 0
-119 -81 0
119 39 -99 22 50 29 47 -14 -36 52 81 0
-120 -46 0
-120 35 0
-120 -26 0
-120 -43 0
-120 15 0
-120 -37 0
-120 10 0
-120 9 0
-120 80 0
-120 -88 0
120 46 -35 26 43 -15 37 -10 -9 -80 88 0
111 112 113 114 115 116 117 118 119 120 0
-121 -29 0
-121 34 0
-121 -59 0
-121 53 0
-121 11 0
-121 26 0
-121 99 0
-121 60 0
-121 61 0
-121 -85 0
121 29 -34 59 -53 -11 -26 -99 -60 -61 85 0
-122 33 0
-122 -9 0
-122 -2 0
-122 -71 0
-122 78 0
-122 48 0
-122 -41 0
-122 3 0
-122 -52 0
-122 -87 0
122 -33 9 2 71 -78 -48 41 -3 52 87 0
-123 70 0
-123 56 0
-123 4 0
-123 28 0
-123 -47 0
-123 -79 0
-123 -22 0
-123 -27 0
-123 68 0
-123 -87 0
123 -70 -56 -4 -28 47 79 22 27 -68 87 0
-124 19 0
-124 90 0
-124 -67 0
-124 -59 0
-124 -50 0
-124 -79 0
-124 -60 0
-124 14 0
-124 -64 0
-124 -29 0
124 -19 -90 67 59 50 79 60 -14 64 29 0
-125 -1 0
-125 82 0
-125 75 0
-125 -71 0
-125 66 0
-125 48 0
-125 74 0
-125 -2 0
-125 37 0
-125 -21 0
125 1 -82 -75 71 -66 -48 -74 2 -37 21 0
-126 -50 0
-126 -30 0
-126 23 0
-126 -56 0
-126 -46 0
-126 -62 0
-126 38 0
-126 -81 0
-126 60 0
-126 79 0
126 50 30 -23 56 46 62 -38 81 -60 -79 0
-127 48 0
-127 58 0
-127 89 0
-127 29 0
-127 -21 0
-127 77 0
-127 88 0
-127 -13 0
-127 -33 0
-127 -20 0
127 -48 -58 -89 -29 21 -77 -88 13 33 20 0
-128 71 0
-128 75 0
-128 50 0
-128 68 0
-128 -64 0
-128 21 0
-128 79 0
-128 90 0
-128 61 0
-128 -37 0
128 -71 -75 -50 -68 64 -21 -79 -90 -61 37 0
-129 99 0
-129 -77 0
-129 24 0
-129 -3 0
-129 -17 0
-129 -57 0
-129 -83 0
-129 84 0
-129 29 0
-129 -96 0
129 -99 77 -24 3 17 57 83 -84 -29 96 0
-130 8 0
-130 7 0
-130 -38 0
-130 -88 0
-130 85 0
-130 -4 0
-130 65 0
-130 -94 0
-130 -17 0
-130 -83 0
130 -8 -7 38 88 -85 4 -65 94 17 83 0
121 122 123 124 125 126 127 128 129 130 0
-131 41 0
-131 43 0
-131 75 0
-131 4 0
-131 -18 0
-131 -36 0
-131 -28 0
-131 95 0
-131 93 0
-131 16 0
131 -41 -43 -75 -4 18 36 28 -95 -93 -16 0
-132 74 0
-132 -98 0
-132 -62 0
-132 -97 0
-132 -14 0
-132 52 0
-132 -91 0
-132 -24 0
-132 -8 0
-132 -46 0
132 -74 98 62 97 14 -52 91 24 8 46 0
-133 -52 0
-133 -12 0
-133 -77 0
-133 -73 0
-133 -71 0
-133 60 0
-133 -24 0
-133 -58 0
-133 -88 0
-133 -27 0
133 52 12 77 73 71 -60 24 58 88 27 0
-134 -2 0
-134 96 0
-134 -89 0
-134 75 0
-134 5 0
-134 -14 0
-134 -94 0
-134 -25 0
-134 52 0
-134 -46 0
134 2 -96 89 -75 -5 14 94 25 -52 46 0
-135 74 0
-135 -46 0
-135 20 0
-135 -50 0
-135 79 0
-135 -53 0
-135 -44 0
-135 93 0
-135 -30 0
-135 2 0
135 -74 46 -20 50 -79 53 44 -93 30 -2 0
-136 -82 0
-136 -50 0
-136 -8 0
-136 -39 0
-136 -51 0
-136 60 0
-136 14 0
-136 -23 0
-136 70 0
-136 -40 0
136 82 50 8 39 51 -60 -14 23 -70 40 0
-137 -45 0
-137 -22 0
-137 49 0
-137 86 0
-137 -42 0
-137 57 0
-137 -34 0
-137 -88 0
-137 -99 0
-137 100 0
137 45 22 -49 -86 42 -57 34 88 99 -100 0
-138 63 0
-138 -60 0
-138 -79 0
-138 78 0
-138 -10 0
-138 -2 0
-138 -86 0
-138 94 0
-138 85 0
-138 19 0
138 -63 60 79 -78 10 2 86 -94 -85 -19 0
-139 57 0
-139 45 0
-139 -14 0
-139 -46 0
-139 18 0
-139 -41 0
-139 27 0
-139 19 0
-139 -17 0
-139 -15 0
139 -57 -45 14 46 -18 41 -27 -19 17 15 0
-140 59 0
-140 -66 0
-140 -96 0
-140 74 0
-140 87 0
-140 -20 0
-140 -76 0
-140 -78 0
-140 42 0
-140 6 0
140 -59 66 96 -74 -87 20 76 78 -42 -6 0
131 132 133 134 135 136 137 138 139 140 0
-141 66 0
-141 -49 0
-141 3 0
-141 -100 0
-141 -77 0
-141 6 0
-141 18 0
-141 -85 0
-141 -40 0
-141 54 0
141 -66 49 -3 100 77 -6 -18 85 40 -54 0
-142 -2 0
-142 46 0
-142 91 0
-142 -95 0
-142 -52 0
-142 -96 0
-142 -89 0
-142 -50 0
-142 42 0
-142 -54 0
142 2 -46 -91 95 52 96 89 50 -42 54 0
-143 64 0
-143 92 0
-143 4 0
-143 -99 0
-143 93 0
-143 -32 0
-143 -53 0
-143 38 0
-143 -5 0
-143 -3 0
143 -64 -92 -4 99 -93 32 53 -38 5 3 0
-144 90 0
-144 36 0
-144 93 0
-144 22 0
-144 -80 0
-144 -17 0
-144 -7 0
-144 87 0
-144 85 0
-144 -10 0
144 -90 -36 -93 -22 80 17 7 -87 -85 10 0
-145 66 0
-145 -40 0
-145 -82 0
-145 100 0
-145 -37 0
-145 2 0
-145 -27 0
-145 43 0
-145 -60 0
-145 -14 0
145 -66 40 82 -100 37 -2 27 -43 60 14 0
-146 -44 0
-146 -43 0
-146 -97 0
-146 -59 0
-146 81 0
-146 19 0
-146 -88 0
-146 -49 0
-146 51 0
-146 24 0
146 44 43 97 59 -81 -19 88 49 -51 -24 0
-147 -82 0
-147 83 0
-147 61 0
-147 5 0
-147 -57 0
-147 -38 0
-147 -63 0
-147 -14 0
-147 -62 0
-147 51 0
147 82 -83 -61 -5 57 38 63 14 62 -51 0
-148 -46 0
-148 -36 0
-148 -57 0
-148 20 0
-148 -61 0
-148 2 0
-148 -53 0
-148 -99 0
-148 -85 0
-148 55 0
148 46 36 57 -20 61 -2 53 99 85 -55 0
-149 41 0
-149 -21 0
-149 -61 0
-149 25 0
-149 -47 0
-149 16 0
-149 -86 0
-149 6 0
-149 59 0
-149 97 0
149 -41 21 61 -25 47 -16 86 -6 -59 -97 0
-150 4 0
-150 -38 0
-150 -69 0
-150 -21 0
-150 -2 0
-150 3 0
-150 46 0
-150 88 0
-150 -62 0
-150 95 0
150 -4 38 69 21 2 -3 -46 -88 62 -95 0
141 142 143 144 145 146 147 148 149 150 0
-151 -10 0
-151 -36 0
-151 -29 0
-151 98 0
-151 -15 0
-151 41 0
-151 -94 0
-151 -65 0
-151 46 0
-151 66 0
151 10 36 29 -98 15 -41 94 65 -46 -66 0
-152 -96 0
-152 -56 0
-152 -41 0
-152 -77 0
-152 -81 0
-152 -98 0
-152 -65 0
-152 -53 0
-152 48 0
-152 -18 0
152 96 56 41 77 81 98 65 53 -48 18 0
-153 -74 0
-153 81 0
-153 29 0
-153 99 0
-153 89 0
-153 33 0
-153 49 0
-153 -21 0
-153 -76 0
-153 -61 0
153 74 -81 -29 -99 -89 -33 -49 21 76 61 0
-154 -23 0
-154 -19 0
-154 -28 0
-154 51 0
-154 -59 0
-154 -63 0
-154 65 0
-154 -80 0
-154 -90 0
-154 15 0
154 23 19 28 -51 59 63 -65 80 90 -15 0
-155 81 0
-155 -39 0
-155 36 0
-155 79 0
-155 -26 0
-155 -69 0
-155 72 0
-155 -20 0
-155 43 0
-155 -91 0
155 -81 39 -36 -79 26 69 -72 20 -43 91 0
-156 -55 0
-156 -66 0
-156 86 0
-156 34 0
-156 5 0
-156 -11 0
-156 36 0
-156 73 0
-156 -26 0
-156 97 0
156 55 66 -86 -34 -5 11 -36 -73 26 -97 0
-157 -59 0
-157 41 0
-157 -1 0
-157 -15 0
-157 -22 0
-157 36 0
-157 12 0
-157 -48 0
-157 -5 0
-157 50 0
157 59 -41 1 15 22 -36 -12 48 5 -50 0
-158 -50 0
-158 -9 0
-158 -6 0
-158 -75 0
-158 -43 0
-158 -59 0
-158 -99 0
-158 74 0
-158 7 0
-158 -58 0
158 50 9 6 75 43 59 99 -74 -7 58 0
-159 78 0
-159 47 0
-159 -30 0
-159 -39 0
-159 40 0
-159 -85 0
-159 -36 0
-159 23 0
-159 -29 0
-159 -60 0
159 -78 -47 30 39 -40 85 36 -23 29 60 0
-160 2 0
-160 -89 0
-160 79 0
-160 -80 0
-160 -11 0
-160 23 0
-160 -22 0
-160 -43 0
-160 -40 0
-160 -29 0
160 -2 89 -79 80 11 -23 22 43 40 29 0
151 152 153 154 155 156 157 158 159 160 0
-161 21 0
-161 27 0
-161 9 0
-161 13 0
-161 93 0
-161 33 0
-161 -74 0
-161 5 0
-161 -38 0
-161 63 0
161 -21 -27 -9 -13 -93 -33 74 -5 38 -63 0
-162 83 0
-162 22 0
-162 -75 0
-162 61 0
-162 -24 0
-162 80 0
-162 -96 0
-162 -79 0
-162 29 0
-162 55 0
162 -83 -22 75 -61 24 -80 96 79 -29 -55 0
-163 54 0
-163 -100 0
-163 2 0
-163 57 0
-163 51 0
-163 -80 0
-163 -44 0
-163 85 0
-163 -52 0
-163 -34 0
163 -54 100 -2 -57 -51 80 44 -85 52 34 0
-164 25 0
-164 -77 0
-164 68 0
-164 10 0
-164 -60 0
-164 -5 0
-164 39 0
-164 -4 0
-164 -98 0
-164 89 0
164 -25 77 -68 -10 60 5 -39 4 98 -89 0
-165 -20 0
-165 -62 0
-165 89 0
-165 23 0
-165 -10 0
-165 17 0
-165 -45 0
-165 54 0
-165 19 0
-165 -52 0
165 20 62 -89 -23 10 -17 45 -54 -19 52 0
-166 -85 0
-166 -43 0
-166 75 0
-166 -8 0
-166 42 0
-166 -59 0
-166 26 0
-166 -94 0
-166 60 0
-166 -62 0
166 85 43 -75 8 -42 59 -26 94 -60 62 0
-167 -49 0
-167 19 0
-167 42 0
-167 -26 0
-167 88 0
-167 87 0
-167 70 0
-167 85 0
-167 71 0
-167 20 0
167 49 -19 -42 26 -88 -87 -70 -85 -71 -20 0
-168 54 0
-168 -6 0
-168 -12 0
-168 15 0
-168 -47 0
-168 -88 0
-168 -89 0
-168 36 0
-168 41 0
-168 -76 0
168 -54 6 12 -15 47 88 89 -36 -41 76 0
-169 40 0
-169 48 0
-169 -33 0
-169 -83 0
-169 -29 0
-169 -94 0
-169 -85 0
-169 -34 0
-169 -14 0
-169 -10 0
169 -40 -48 33 83 29 94 85 34 14 10 0
-170 7 0
-170 -76 0
-170 47 0
-170 -27 0
-170 62 0
-170 38 0
-170 -54 0
-170 50 0
-170 -2 0
-170 -25 0
170 -7 76 -47 27 -62 -38 54 -50 2 25 0
161 162 163 164 165 166 167 168 169 170 0
-171 1 0
-171 84 0
-171 4 0
-171 30 0
-171 -83 0
-171 15 0
-171 68 0
-171 33 0
-171 -57 0
-171 81 0
171 -1 -84 -4 -30 83 -15 -68 -33 57 -81 0
-172 -80 0
-172 -98 0
-172 53 0
-172 89 0
-172 88 0
-172 -35 0
-172 27 0
-172 30 0
-172 -48 0
-172 42 0
172 80 98 -53 -89 -88 35 -27 -30 48 -42 0
-173 -1 0
-173 -49 0
-173 33 0
-173 -67 0
-173 95 0
-173 4 0
-173 -9 0
-173 68 0
-173 30 0
-173 -28 0
173 1 49 -33 67 -95 -4 9 -68 -30 28 0
-174 98 0
-174 -47 0
-174 -76 0
-174 -79 0
-174 -87 0
-174 83 0
-174 66 0
-174 -94 0
-174 93 0
-174 -86 0
174 -98 47 76 79 87 -83 -66 94 -93 86 0
-175 -64 0
-175 -80 0
-175 -47 0
-175 -96 0
-175 28 0
-175 -21 0
-175 22 0
-175 -89 0
-175 95 0
-175 12 0
175 64 80 47 96 -28 21 -22 89 -95 -12 0
-176 -45 0
-176 43 0
-176 -62 0
-176 61 0
-176 -41 0
-176 98 0
-176 6 0
-176 83 0
-176 -77 0
-176 -93 0
176 45 -43 62 -61 41 -98 -6 -83 77 93 0
-177 20 0
-177 42 0
-177 31 0
-177 -35 0
-177 65 0
-177 -100 0
-177 -69 0
-177 15 0
-177 82 0
-177 -60 0
177 -20 -42 -31 35 -65 100 69 -15 -82 60 0
-178 -65 0
-178 -71 0
-178 100 0
-178 78 0
-178 -93 0
-178 -97 0
-178 -45 0
-178 -68 0
-178 7 0
-178 -33 0
178 65 71 -100 -78 93 97 45 68 -7 33 0
-179 -76 0
-179 92 0
-179 52 0
-179 -88 0
-179 89 0
-179 -75 0
-179 69 0
-179 -73 0
-179 -18 0
-179 -31 0
179 76 -92 -52 88 -89 75 -69 73 18 31 0
-180 61 0
-180 95 0
-180 3 0
-180 -41 0
-180 4 0
-180 69 0
-180 90 0
-180 -60 0
-180 62 0
-180 -100 0
180 -61 -95 -3 41 -4 -69 -90 60 -62 100 0
171 172 173 174 175 176 177 178 179 180 0
-181 -69 0
-181 -40 0
-181 -27 0
-181 7 0
-181 24 0
-181 -92 0
-181 53 0
-181 72 0
-181 32 0
-181 38 0
181 69 40 27 -7 -24 92 -53 -72 -32 -38 0
-182 -70 0
-182 32 0
-182 -54 0
-182 64 0
-182 -72 0
-182 85 0
-182 50 0
-182 47 0
-182 42 0
-182 49 0
182 70 -32 54 -64 72 -85 -50 -47 -42 -49 0
-183 -70 0
-183 68 0
-183 54 0
-183 42 0
-183 99 0
-183 -94 0
-183 -46 0
-183 24 0
-183 -71 0
-183 78 0
183 70 -68 -54 -42 -99 94 46 -24 71 -78 0
-184 63 0
-184 68 0
-184 57 0
-184 -21 0
-184 -100 0
-184 -26 0
-184 -79 0
-184 41 0
-184 12 0
-184 92 0
184 -63 -68 -57 21 100 26 79 -41 -12 -92 0
-185 31 0
-185 55 0
-185 -79 0
-185 5 0
-185 -1 0
-185 -54 0
-185 64 0
-185 -75 0
-185 -70 0
-185 -30 0
185 -31 -55 79 -5 1 54 -64 75 70 30 0
-186 85 0
-186 20 0
-186 -28 0
-186 69 0
-186 45 0
-186 36 0
-186 27 0
-186 -66 0
-186 68 0
-186 -93 0
186 -85 -20 28 -69 -45 -36 -27 66 -68 93 0
-187 21 0
-187 64 0
-187 -75 0
-187 -92 0
-187 61 0
-187 7 0
-187 -69 0
-187 42 0
-187 -28 0
-187 -3 0
187 -21 -64 75 92 -61 -7 69 -42 28 3 0
-188 54 0
-188 -4 0
-188 -43 0
-188 18 0
-188 23 0
-188 -26 0
-188 -13 0
-188 10 0
-188 -79 0
-188 21 0
188 -54 4 43 -18 -23 26 13 -10 79 -21 0
-189 39 0
-189 -76 0
-189 43 0
-189 -60 0
-189 -79 0
-189 45 0
-189 -47 0
-189 -30 0
-189 75 0
-189 -80 0
189 -39 76 -43 60 79 -45 47 30 -75 80 0
-190 -50 0
-190 38 0
-190 20 0
-190 45 0
-190 -33 0
-190 44 0
-190 15 0
-190 -68 0
-190 -28 0
-190 -98 0
190 50 -38 -20 -45 33 -44 -15 68 28 98 0
181 182 183 184 185 186 187 188 189 190 0
-191 81 0
-191 -47 0
-191 -42 0
-191 -54 0
-191 36 0
-191 89 0
-191 -73 0
-191 -66 0
-191 -1 0
-191 -94 0
191 -81 47 42 54 -36 -89 73 66 1 94 0
-192 -61 0
-192 -8 0
-192 -60 0
-192 98 0
-192 97 0
-192 25 0
-192 50 0
-192 -5 0
-192 64 0
-192 -29 0
192 61 8 60 -98 -97 -25 -50 5 -64 29 0
-193 -37 0
-193 65 0
-193 -13 0
-193 -81 0
-193 -62 0
-193 -83 0
-193 -6 0
-193 -94 0
-193 58 0
-193 -61 0
193 37 -65 13 81 62 83 6 94 -58 61 0
-194 63 0
-194 23 0
-194 69 0
-194 13 0
-194 -57 0
-194 -55 0
-194 -41 0
-194 -48 0
-194 -4 0
-194 8 0
194 -63 -23 -69 -13 57 55 41 48 4 -8 0
-195 92 0
-195 80 0
-195 46 0
-195 -49 0
-195 -44 0
-195 -82 0
-195 55 0
-195 -24 0
-195 -42 0
-195 88 0
195 -92 -80 -46 49 44 82 -55 24 42 -88 0
-196 83 0
-196 -12 0
-196 -19 0
-196 -32 0
-196 -77 0
-196 75 0
-196 72 0
-196 22 0
-196 -27 0
-196 -8 0
196 -83 12 19 32 77 -75 -72 -22 27 8 0
-197 -23 0
-197 33 0
-197 79 0
-197 -74 0
-197 43 0
-197 37 0
-197 31 0
-197 11 0
-197 88 0
-197 -54 0
197 23 -33 -79 74 -43 -37 -31 -11 -88 54 0
-198 -1 0
-198 -98 0
-198 88 0
-198 -28 0
-198 99 0
-198 -81 0
-198 30 0
-198 49 0
-198 -100 0
-198 -39 0
198 1 98 -88 28 -99 81 -30 -49 100 39 0
-199 -42 0
-199 -57 0
-199 33 0
-199 -46 0
-199 -59 0
-199 96 0
-199 -36 0
-199 -10 0
-199 -11 0
-199 -19 0
199 42 57 -33 46 59 -96 36 10 11 19 0
-200 100 0
-200 -35 0
-200 -10 0
-200 58 0
-200 65 0
-200 2 0
-200 62 0
-200 -32 0
-200 -44 0
-200 80 0
200 -100 35 10 -58 -65 -2 -62 32 44 -80 0
191 192 193 194 195 196 197 198 199 200 0
